TCS_Benchmarks/redos_fix/corpus1_output_distinct_2410_2409_12_0.smt2
(set-logic QF_S)
(declare-const x String)
(assert (str.in.re x (re.inter  (re.++ (re.+ (re.union (re.range "\u{00}" "\u{08}") (re.range "\u{0e}" "\u{1f}") (re.range "\u{21}" "\u{84}") (re.range "\u{86}" "\u{9f}") (re.range "\u{a1}" "\u{ff}")) ) (re.* (re.union (re.range "\u{09}" "\u{0d}") (re.range "\u{20}" "\u{20}") (re.range "\u{85}" "\u{85}") (re.range "\u{a0}" "\u{a0}")) ))  (re.++ (re.+ (re.union (re.range "\u{00}" "\u{08}") (re.range "\u{0e}" "\u{1f}") (re.range "\u{21}" "\u{84}") (re.range "\u{86}" "\u{9f}") (re.range "\u{a1}" "\u{ff}")) ) (re.++  (re.++ (re.* (re.union (re.range "\u{09}" "\u{0d}") (re.range "\u{20}" "\u{20}") (re.range "\u{85}" "\u{85}") (re.range "\u{a0}" "\u{a0}")) ) (re.++  (str.to.re "\u{2e}") (re.++ (re.* (re.union (re.range "\u{09}" "\u{0d}") (re.range "\u{20}" "\u{20}") (re.range "\u{85}" "\u{85}") (re.range "\u{a0}" "\u{a0}")) ) (re.++  (str.to.re "\u{74}") (re.++  (str.to.re "\u{6f}") (re.++  (str.to.re "\u{67}") (re.++  (str.to.re "\u{67}") (re.++  (str.to.re "\u{6c}") (re.++  (str.to.re "\u{65}") (re.++  (str.to.re "\u{62}") (re.++  (str.to.re "\u{79}") (re.++  (str.to.re "\u{74}") (re.++  (str.to.re "\u{65}") (re.++  (str.to.re "\u{6f}") (re.++  (str.to.re "\u{72}") (re.++  (str.to.re "\u{64}") (re.++  (str.to.re "\u{65}")  (str.to.re "\u{72}")))))))))))))))))) (re.* (re.union (re.range "\u{09}" "\u{0d}") (re.range "\u{20}" "\u{20}") (re.range "\u{85}" "\u{85}") (re.range "\u{a0}" "\u{a0}")) ))) )))
(check-sat)
(get-model)