TCS_Benchmarks/redos_fix/corpus1_output_distinct_2410_2409_12_0.txt
(\S+)(\s*)
(\S+)(\s*[.]\s*togglebyteorder)(\s*)